70 170911
67 53 24 21 13 40 56 44 28 58 65 32 25 8 1 4 19 12 69 27 16 2 15 37 49 14 17 7 31 3 39 63 43 30 57 66 22 9 26 29 48 33 51 36 42 41 20 54 62 18 5 50 38 45 6 52 35 70 55 60 11 46 64 59 10 61 68 23 34 47 
